%mem=20GB
%chk=S_propane_ethyl_mn_ligand_ts_outer_two_water74.chk
%nprocshared=8
# opt=(calcfc,ts,noeigen,newton) freq=noraman ub3lyp/gen
scrf=(smd,solvent=water) guess=mix empiricaldispersion=gd3 pseudo=read
scf=maxcycle=1024

the linked opt to the modred file

0 1
 C                  2.78504000   -0.16628900   -1.21938900
 O                  1.69929000    0.18163400   -1.82607300
 C                  3.51316520    0.91059188   -0.44782804
 H                  2.83731309    1.73140818   -0.20363173
 H                  4.38959125    1.28224297   -0.98214180
 H                  3.84848158    0.45949379    0.49499975
 C                  3.61594580   -1.29606588   -1.80665396
 H                  3.93480194   -1.04832964   -2.82257647
 H                  2.99277408   -2.19176098   -1.85743538
 C                  4.84437905   -1.55978500   -0.89684603
 H                  5.59064787   -0.77526461   -1.07047821
 H                  4.53547154   -1.47924515    0.14993338
 C                  5.44900827   -2.92582580   -1.12768671
 C                  5.82946011   -3.34127833   -2.41358457
 C                  5.59245512   -3.82811586   -0.06424959
 C                  6.32670237   -4.62769948   -2.63063301
 H                  5.72296360   -2.65751704   -3.25166968
 C                  6.09649665   -5.11428998   -0.27659352
 H                  5.28973320   -3.52531029    0.93472229
 C                  6.46074786   -5.52036395   -1.56213409
 H                  6.60900444   -4.93422489   -3.63399493
 H                  6.19337582   -5.80023947    0.56023293
 H                  6.84315043   -6.52265376   -1.73202467

